5 5
2 49 3 11 1 66 0 58 4 90
0 36 2 33 3 47 1 13 4 40
1 89 3 68 0 42 2 19 4 82
0 94 4 19 2 58 3 23 1 54
3 80 0 65 4 12 2 24 1 34
-1
0 1 3 5
0 1 3 4 5
0 2 5
0 1 2 3 5
0 3 4 5
-2
51 177 427
44 177 179 260
186 452
129 123 209 279
250 229 247

421 7
5 15 3 21 12
10 2 8 19 24
0 6 17 13 23
1 7 20 11 18
16 9 4 22 14
